12 66
1 2 5
1 3 4
1 4 2
1 5 2
1 6 1
1 7 1
1 8 1
1 9 5
1 10 3
1 11 3
1 12 4
2 3 5
2 4 3
2 5 3
2 6 4
2 7 2
2 8 2
2 9 5
2 10 3
2 11 4
2 12 1
3 4 5
3 5 3
3 6 5
3 7 1
3 8 2
3 9 1
3 10 4
3 11 4
3 12 2
4 5 2
4 6 5
4 7 1
4 8 4
4 9 5
4 10 3
4 11 3
4 12 3
5 6 4
5 7 2
5 8 4
5 9 1
5 10 3
5 11 1
5 12 3
6 7 2
6 8 4
6 9 2
6 10 3
6 11 3
6 12 4
7 8 4
7 9 4
7 10 2
7 11 2
7 12 3
8 9 2
8 10 5
8 11 4
8 12 5
9 10 3
9 11 5
9 12 5
10 11 5
10 12 2
11 12 3
